2
1000 3
178
512 1 1
1 1 1
515 1 1
4 1 1
517 1 2
518 1 3
7 1 1
9 1 1
523 1 1
531 1 1
21 1 1
535 1 1
541 1 1
36 1 1
41 1 1
519 1 1
44 1 1
45 1 1
558 1 1
605 1 1
50 1 1
51 1 1
55 1 1
568 1 1
59 1 1
572 1 1
61 1 3
66 1 1
580 1 1
583 1 1
72 1 1
595 1 2
602 1 1
93 1 1
94 1 1
608 1 2
99 1 1
612 1 1
613 1 1
102 1 1
103 1 1
104 1 1
617 1 1
622 1 1
625 1 1
116 1 2
629 1 1
119 1 1
120 1 1
633 1 1
123 1 1
637 1 1
640 1 1
644 1 1
133 1 1
646 1 1
141 1 1
146 1 1
147 1 1
662 1 2
667 1 1
157 1 1
673 1 1
164 1 1
677 1 1
166 1 1
168 1 1
170 1 1
171 1 1
174 1 1
790 1 1
179 1 1
692 1 1
181 1 1
184 1 1
185 1 2
699 1 1
700 1 1
189 1 1
703 1 1
704 1 1
196 1 2
709 1 1
712 1 1
713 1 1
208 1 1
209 1 1
210 1 1
723 1 1
212 1 1
213 1 1
214 1 1
220 1 1
221 1 1
223 1 1
736 1 2
226 1 1
635 1 1
740 1 2
742 1 1
743 1 1
232 1 1
233 1 2
240 1 1
242 1 1
724 1 2
246 1 1
249 1 1
250 1 2
252 1 1
254 1 1
257 1 1
772 1 1
266 1 1
786 1 1
275 1 1
276 1 1
691 1 2
278 1 2
793 1 1
794 1 1
292 1 1
732 1 1
658 1 1
312 1 1
313 1 1
321 1 1
328 1 1
334 1 1
336 1 1
337 1 1
659 1 1
345 1 1
346 1 1
347 1 1
354 1 1
355 1 1
360 1 1
363 1 1
365 1 1
369 1 1
370 1 2
371 1 1
387 1 1
395 1 1
396 1 1
399 1 1
400 1 1
407 1 1
408 1 1
415 1 1
416 1 1
419 1 1
423 1 2
431 1 1
628 1 1
436 1 1
521 1 1
756 1 1
443 1 1
446 1 1
447 1 1
459 1 1
678 1 1
462 1 1
466 1 1
468 1 1
469 1 1
471 1 1
476 1 1
482 1 1
485 1 1
487 1 2
764 1 1
494 1 1
504 1 1
506 1 2
509 1 1
